certificates/rado_a10_c48_N20.cnf
c Rad2 upper bound instance: x1 + 10*x2 - x3 = 48, interval [1,20]
p cnf 20 80
1 3 5 0
-1 -3 -5 0
1 6 13 0
-1 -6 -13 0
2 4 5 0
-2 -4 -5 0
2 6 14 0
-2 -6 -14 0
3 5 0
-3 -5 0
3 6 15 0
-3 -6 -15 0
4 5 6 0
-4 -5 -6 0
4 6 16 0
-4 -6 -16 0
5 7 0
-5 -7 0
5 6 17 0
-5 -6 -17 0
5 6 8 0
-5 -6 -8 0
6 18 0
-6 -18 0
5 7 9 0
-5 -7 -9 0
6 7 19 0
-6 -7 -19 0
5 8 10 0
-5 -8 -10 0
6 8 20 0
-6 -8 -20 0
1 4 9 0
-1 -4 -9 0
5 9 11 0
-5 -9 -11 0
2 4 10 0
-2 -4 -10 0
5 10 12 0
-5 -10 -12 0
3 4 11 0
-3 -4 -11 0
5 11 13 0
-5 -11 -13 0
4 12 0
-4 -12 0
5 12 14 0
-5 -12 -14 0
4 5 13 0
-4 -5 -13 0
5 13 15 0
-5 -13 -15 0
4 6 14 0
-4 -6 -14 0
5 14 16 0
-5 -14 -16 0
4 7 15 0
-4 -7 -15 0
5 15 17 0
-5 -15 -17 0
4 8 16 0
-4 -8 -16 0
5 16 18 0
-5 -16 -18 0
4 9 17 0
-4 -9 -17 0
5 17 19 0
-5 -17 -19 0
4 10 18 0
-4 -10 -18 0
5 18 20 0
-5 -18 -20 0
1 3 19 0
-1 -3 -19 0
4 11 19 0
-4 -11 -19 0
2 3 20 0
-2 -3 -20 0
4 12 20 0
-4 -12 -20 0
