certificates/rado_a10_c48_N20.drat
6 5 0
d 6 17 5 0
-18 -20 0
-6 -19 0
d -6 -7 -19 0
-5 -6 0
-20 0
-6 0
5 0
18 0
8 0
-3 0
-7 0
-16 0
-10 0
2 0
15 0
19 0
4 0
0
